17	4
13	15	15	15	
0	0	0	0	0	3	2	3	4	
1	2	9	9	4	3	5	7	14	
10	2	10	0	2	3	15	16	17	
6	7	3	0	0	1	8	
1	3	7	5	1	1	6	
75	0	7	4	1	2	17	17	
225	6	1	0	0	3	9	11	13	
50	7	4	7	0	1	17	
250	0	7	0	6	1	10	
50	8	2	0	0	1	12	
125	4	0	9	0	2	17	17	
100	5	10	0	1	1	17	
8	0	6	10	9	2	17	17	
3	4	1	0	6	1	17	
6	1	7	0	5	1	17	
5	1	5	9	4	1	17	
0	0	0	0	0	0	
